%BLOCK LATTICE_ABC
2.88 2.88 2.88
90 90 90
%ENDBLOCK LATTICE_ABC

%BLOCK POSITIONS_FRAC
Cr    0.0  0.0 0.0  spin=2.0
#Cr    0.0  0.0 0.0  spin=2.0
#Cr    0.5  0.5 0.5  spin=-2.0  
%ENDBLOCK POSITIONS_FRAC

kpoint_mp_spacing 0.04

symmetry_generate
